Maximize

5 y_0 + 10 y_1


Subject To


z0: x$_0 = 1 -> x_0_0 + x_1_0 > 0
z1: x$_1 = 1 -> y_0 = 1
z2: x$_0 - x$_1  <=  0
z3: x$_2 = 1 -> x_0_1 + x_1_1 > 0
z4: x$_3 = 1 -> y_1 = 1
z5: x$_2 - x$_3  <=  0


Bounds


x_0_0 + x_0_1 <= 6
x_1_0 + x_1_1 <= 3
x_2_0 + x_2_1 <= 8



Binary

x$_0 x$_1 x$_2 x$_3y_0 y_1


General

 x_0_0 x_0_1 x_1_0 x_1_1 x_2_0 x_2_1



End
